20
9	17	43	87	74
6	49	25	38	14
8	85	43	64	69
5	85	50	10	74
2	50	48	87	88
7	83	44	17	20
3	29	53	25	76
5	66	23	45	39
1	29	65	50	70
1	21	6	11	34
10	50	14	83	54
6	61	43	6	83
1	2	100	47	7
2	1	61	49	78
10	57	44	18	54
5	75	46	33	86
5	7	91	73	13
5	59	46	81	93
3	76	13	40	50
7	38	92	89	55
